NAME : rc_203.3.8175261.tour
COMMENT : Length = 8175261
COMMENT : Found by LKH [Keld Helsgaun] Tue May  2 05:21:40 2017
TYPE : TOUR
DIMENSION : 37
TOUR_SECTION
1
35
32
19
17
14
12
10
9
11
16
15
13
24
25
34
21
30
29
4
2
23
27
37
3
6
18
7
5
26
22
28
8
20
33
36
31
-1
EOF
